objective value:                                13339
y...0009                                            1 	(obj:3018)
y...0011                                            1 	(obj:3130)
y...0595                                            1 	(obj:1678)
y...0600                                            1 	(obj:1116)
y...0601                                            1 	(obj:1625)
y...0852                                            1 	(obj:2772)
x...0009                                           43 	(obj:0)
x...0011                                            2 	(obj:0)
x...0595                                           75 	(obj:0)
x...0600                                         3885 	(obj:0)
x...0601                                           37 	(obj:0)
x...0852                                         3950 	(obj:0)
x...0991                                         3950 	(obj:0)
